<?xml version = "1.0" encoding="UTF-8" standalone="yes"?>
<CPLEXSolution version="1.2">
 <header
   problemName="ilog.cplex"
   objectiveValue="168"
   solutionTypeValue="1"
   solutionTypeString="basic"
   solutionStatusValue="1"
   solutionStatusString="optimal"
   solutionMethodString="dual"
   primalFeasible="1"
   dualFeasible="1"
   simplexIterations="18"
   writeLevel="3"/>
 <quality
   epRHS="9.9999999999999995e-07"
   epOpt="9.9999999999999995e-07"
   maxPrimalInfeas="0"
   maxDualInfeas="2.2204460492503131e-16"
   maxPrimalResidual="1.3322676295501878e-14"
   maxDualResidual="2.4424906541753444e-15"
   maxX="1"
   maxPi="31"
   maxSlack="100"
   maxRedCost="100"
   kappa="1415.1458957869538"/>
 <linearConstraints>
  <constraint name="c5" index="4" status="LL" slack="0" dual="-16"/>
  <constraint name="c6" index="5" status="LL" slack="0" dual="-16"/>
  <constraint name="c7" index="6" status="LL" slack="0" dual="-16"/>
  <constraint name="c8" index="7" status="LL" slack="0" dual="-16"/>
  <constraint name="c9" index="8" status="LL" slack="0" dual="-31"/>
  <constraint name="c10" index="9" status="LL" slack="0" dual="-31"/>
  <constraint name="c11" index="10" status="LL" slack="0" dual="-31"/>
  <constraint name="c12" index="11" status="LL" slack="0" dual="-31"/>
  <constraint name="c21" index="20" status="LL" slack="0" dual="-12"/>
  <constraint name="c22" index="21" status="LL" slack="0" dual="-12"/>
  <constraint name="c23" index="22" status="LL" slack="0" dual="-12"/>
  <constraint name="c24" index="23" status="LL" slack="0" dual="-12"/>
  <constraint name="c25" index="24" status="LL" slack="0" dual="-30"/>
  <constraint name="c26" index="25" status="LL" slack="0" dual="-30"/>
  <constraint name="c27" index="26" status="LL" slack="0" dual="-30"/>
  <constraint name="c28" index="27" status="LL" slack="0" dual="-30"/>
  <constraint name="c29" index="28" status="LL" slack="0" dual="-16"/>
  <constraint name="c30" index="29" status="LL" slack="0" dual="-16"/>
  <constraint name="c31" index="30" status="LL" slack="0" dual="-16"/>
  <constraint name="c32" index="31" status="LL" slack="0" dual="-16"/>
  <constraint name="c33" index="32" status="LL" slack="0" dual="-4"/>
  <constraint name="c34" index="33" status="LL" slack="0" dual="-4"/>
  <constraint name="c35" index="34" status="LL" slack="0" dual="-4"/>
  <constraint name="c36" index="35" status="LL" slack="0" dual="-4"/>
  <constraint name="c37" index="36" status="LL" slack="0" dual="-20"/>
  <constraint name="c38" index="37" status="LL" slack="0" dual="-20"/>
  <constraint name="c39" index="38" status="LL" slack="0" dual="-20"/>
  <constraint name="c40" index="39" status="LL" slack="0" dual="-20"/>
  <constraint name="c41" index="40" status="LL" slack="0" dual="-28"/>
  <constraint name="c42" index="41" status="LL" slack="0" dual="-28"/>
  <constraint name="c43" index="42" status="LL" slack="0" dual="-28"/>
  <constraint name="c44" index="43" status="LL" slack="0" dual="-28"/>
  <constraint name="c45" index="44" status="LL" slack="0" dual="-27"/>
  <constraint name="c46" index="45" status="LL" slack="0" dual="-27"/>
  <constraint name="c47" index="46" status="LL" slack="0" dual="-27"/>
  <constraint name="c48" index="47" status="LL" slack="0" dual="-27"/>
  <constraint name="flow_1_0" index="52" status="LL" slack="0" dual="-15"/>
  <constraint name="flow_1_1" index="53" status="LL" slack="0" dual="-15"/>
  <constraint name="flow_1_2" index="54" status="LL" slack="0" dual="-15"/>
  <constraint name="flow_1_3" index="55" status="LL" slack="0" dual="-15"/>
  <constraint name="flow_2_0" index="56" status="LL" slack="0" dual="14"/>
  <constraint name="flow_2_1" index="57" status="LL" slack="0" dual="14"/>
  <constraint name="flow_2_2" index="58" status="LL" slack="0" dual="14"/>
  <constraint name="flow_2_3" index="59" status="LL" slack="0" dual="14"/>
  <constraint name="flow_3_0" index="60" status="LL" slack="0" dual="-4"/>
  <constraint name="flow_3_1" index="61" status="LL" slack="0" dual="-4"/>
  <constraint name="flow_3_2" index="62" status="LL" slack="0" dual="-4"/>
  <constraint name="flow_3_3" index="63" status="LL" slack="0" dual="-4"/>
  <constraint name="flow_4_0" index="64" status="LL" slack="0" dual="-10"/>
  <constraint name="flow_4_1" index="65" status="LL" slack="0" dual="-10"/>
  <constraint name="flow_4_2" index="66" status="LL" slack="0" dual="-10"/>
  <constraint name="flow_4_3" index="67" status="LL" slack="0" dual="-10"/>
  <constraint name="flow_5_0" index="68" status="LL" slack="0" dual="5"/>
  <constraint name="flow_5_1" index="69" status="LL" slack="0" dual="5"/>
  <constraint name="flow_5_2" index="70" status="LL" slack="0" dual="5"/>
  <constraint name="flow_5_3" index="71" status="LL" slack="0" dual="5"/>
  <constraint name="flow_6_0" index="72" status="LL" slack="0" dual="14"/>
  <constraint name="flow_6_1" index="73" status="LL" slack="0" dual="14"/>
  <constraint name="flow_6_2" index="74" status="LL" slack="0" dual="14"/>
  <constraint name="flow_6_3" index="75" status="LL" slack="0" dual="14"/>
  <constraint name="flow_9_0" index="84" status="LL" slack="0" dual="3"/>
  <constraint name="flow_9_1" index="85" status="LL" slack="0" dual="3"/>
  <constraint name="flow_9_2" index="86" status="LL" slack="0" dual="3"/>
  <constraint name="flow_9_3" index="87" status="LL" slack="0" dual="3"/>
  <constraint name="flow_10_0" index="88" status="LL" slack="0" dual="12"/>
  <constraint name="flow_10_1" index="89" status="LL" slack="0" dual="12"/>
  <constraint name="flow_10_2" index="90" status="LL" slack="0" dual="12"/>
  <constraint name="flow_10_3" index="91" status="LL" slack="0" dual="12"/>
  <constraint name="flow_11_0" index="92" status="LL" slack="0" dual="-3"/>
  <constraint name="flow_11_1" index="93" status="LL" slack="0" dual="-3"/>
  <constraint name="flow_11_2" index="94" status="LL" slack="0" dual="-3"/>
  <constraint name="flow_11_3" index="95" status="LL" slack="0" dual="-3"/>
  <constraint name="serving_0" index="96" status="LL" slack="0" dual="16"/>
  <constraint name="serving_1" index="97" status="LL" slack="0" dual="31"/>
  <constraint name="serving_4" index="100" status="LL" slack="0" dual="12"/>
  <constraint name="serving_5" index="101" status="LL" slack="0" dual="30"/>
  <constraint name="serving_7" index="103" status="LL" slack="0" dual="4"/>
  <constraint name="serving_8" index="104" status="LL" slack="0" dual="20"/>
  <constraint name="serving_9" index="105" status="LL" slack="0" dual="28"/>
  <constraint name="serving_10" index="106" status="LL" slack="0" dual="27"/>
  <constraint name="visit_0_0" index="111" status="LL" slack="0" dual="-16"/>
  <constraint name="visit_0_1" index="112" status="LL" slack="0" dual="-16"/>
  <constraint name="visit_0_2" index="113" status="LL" slack="0" dual="-16"/>
  <constraint name="visit_0_3" index="114" status="LL" slack="0" dual="-16"/>
  <constraint name="visit_1_0" index="115" status="LL" slack="0" dual="-31"/>
  <constraint name="visit_1_1" index="116" status="LL" slack="0" dual="-31"/>
  <constraint name="visit_1_2" index="117" status="LL" slack="0" dual="-31"/>
  <constraint name="visit_1_3" index="118" status="LL" slack="0" dual="-31"/>
  <constraint name="visit_4_0" index="127" status="LL" slack="0" dual="-12"/>
  <constraint name="visit_4_1" index="128" status="LL" slack="0" dual="-12"/>
  <constraint name="visit_4_2" index="129" status="LL" slack="0" dual="-12"/>
  <constraint name="visit_4_3" index="130" status="LL" slack="0" dual="-12"/>
  <constraint name="visit_5_0" index="131" status="LL" slack="0" dual="-30"/>
  <constraint name="visit_5_1" index="132" status="LL" slack="0" dual="-30"/>
  <constraint name="visit_5_2" index="133" status="LL" slack="0" dual="-30"/>
  <constraint name="visit_5_3" index="134" status="LL" slack="0" dual="-30"/>
  <constraint name="visit_7_0" index="139" status="LL" slack="0" dual="-4"/>
  <constraint name="visit_7_1" index="140" status="LL" slack="0" dual="-4"/>
  <constraint name="visit_7_2" index="141" status="LL" slack="0" dual="-4"/>
  <constraint name="visit_7_3" index="142" status="LL" slack="0" dual="-4"/>
  <constraint name="visit_8_0" index="143" status="LL" slack="0" dual="-20"/>
  <constraint name="visit_8_1" index="144" status="LL" slack="0" dual="-20"/>
  <constraint name="visit_8_2" index="145" status="LL" slack="0" dual="-20"/>
  <constraint name="visit_8_3" index="146" status="LL" slack="0" dual="-20"/>
  <constraint name="visit_9_0" index="147" status="LL" slack="0" dual="-28"/>
  <constraint name="visit_9_1" index="148" status="LL" slack="0" dual="-28"/>
  <constraint name="visit_9_2" index="149" status="LL" slack="0" dual="-28"/>
  <constraint name="visit_9_3" index="150" status="LL" slack="0" dual="-28"/>
  <constraint name="visit_10_0" index="151" status="LL" slack="0" dual="-27"/>
  <constraint name="visit_10_1" index="152" status="LL" slack="0" dual="-27"/>
  <constraint name="visit_10_2" index="153" status="LL" slack="0" dual="-27"/>
  <constraint name="visit_10_3" index="154" status="LL" slack="0" dual="-27"/>
  <constraint name="mtz_8_9_0" index="467" status="LL" slack="0" dual="-2.2204460492503131e-16"/>
 </linearConstraints>
 <variables>
  <variable index="234" status="BS" value="0.5" reducedCost="0"/>
  <variable index="251" status="BS" value="0.5" reducedCost="0"/>
  <variable index="270" status="BS" value="0.5" reducedCost="0"/>
  <variable index="287" status="BS" value="0.5" reducedCost="0"/>
  <variable index="305" status="BS" value="0.5" reducedCost="0"/>
  <variable index="337" status="BS" value="0.5" reducedCost="0"/>
  <variable index="372" status="BS" value="0.5" reducedCost="0"/>
  <variable index="373" status="BS" value="0.5" reducedCost="0"/>
  <variable index="400" status="BS" value="0.5" reducedCost="0"/>
  <variable index="401" status="BS" value="0.5" reducedCost="0"/>
  <variable index="457" status="BS" value="0.90909090909090917" reducedCost="0"/>
  <variable index="463" status="BS" value="0.90909090909090917" reducedCost="0"/>
  <variable index="467" status="BS" value="0.090909090909090828" reducedCost="0"/>
  <variable index="473" status="BS" value="0.090909090909090828" reducedCost="0"/>
  <variable index="498" status="BS" value="0.75757575757575757" reducedCost="0"/>
  <variable index="502" status="BS" value="0.75757575757575757" reducedCost="0"/>
  <variable index="522" status="BS" value="0.24242424242424243" reducedCost="0"/>
  <variable index="526" status="BS" value="0.24242424242424243" reducedCost="0"/>
  <variable index="528" status="BS" value="0.90909090909090917" reducedCost="0"/>
  <variable index="534" status="BS" value="0.090909090909090828" reducedCost="0"/>
  <variable index="576" status="BS" value="0.24242424242424243" reducedCost="0"/>
  <variable index="579" status="BS" value="0.75757575757575757" reducedCost="0"/>
  <variable index="580" status="BS" value="0.5" reducedCost="0"/>
  <variable index="582" status="BS" value="0.5" reducedCost="0"/>
  <variable index="584" status="BS" value="1" reducedCost="0"/>
  <variable index="588" status="BS" value="0.5" reducedCost="0"/>
  <variable index="590" status="BS" value="0.5" reducedCost="0"/>
  <variable index="592" status="BS" value="0.5" reducedCost="0"/>
  <variable index="594" status="BS" value="0.5" reducedCost="0"/>
  <variable index="598" status="BS" value="0.090909090909090828" reducedCost="0"/>
  <variable index="599" status="BS" value="0.90909090909090917" reducedCost="0"/>
  <variable index="600" status="BS" value="0.24242424242424243" reducedCost="0"/>
  <variable index="603" status="BS" value="0.75757575757575757" reducedCost="0"/>
  <variable index="606" status="BS" value="0.090909090909090828" reducedCost="0"/>
  <variable index="607" status="BS" value="0.90909090909090917" reducedCost="0"/>
  <variable index="610" status="BS" value="0.090909090909090828" reducedCost="0"/>
  <variable index="611" status="BS" value="0.90909090909090917" reducedCost="0"/>
  <variable index="612" status="BS" value="0.24242424242424243" reducedCost="0"/>
  <variable index="615" status="BS" value="0.75757575757575757" reducedCost="0"/>
  <variable index="616" status="BS" value="0.5" reducedCost="0"/>
  <variable index="618" status="BS" value="0.5" reducedCost="0"/>
  <variable index="620" status="LL" value="1" reducedCost="0"/>
  <variable index="621" status="LL" value="1" reducedCost="0"/>
  <variable index="622" status="LL" value="1" reducedCost="0"/>
  <variable index="623" status="LL" value="1" reducedCost="0"/>
  <variable index="624" status="LL" value="1" reducedCost="0"/>
  <variable index="625" status="LL" value="1" reducedCost="0"/>
  <variable index="626" status="LL" value="1" reducedCost="0"/>
  <variable index="627" status="LL" value="1" reducedCost="0"/>
  <variable index="628" status="LL" value="1" reducedCost="0"/>
  <variable index="629" status="LL" value="1" reducedCost="0"/>
  <variable index="630" status="LL" value="1" reducedCost="0"/>
  <variable index="631" status="LL" value="1" reducedCost="0"/>
  <variable index="632" status="LL" value="1" reducedCost="0"/>
  <variable index="633" status="LL" value="1" reducedCost="0"/>
  <variable index="634" status="LL" value="1" reducedCost="0"/>
  <variable index="635" status="LL" value="1" reducedCost="0"/>
  <variable index="636" status="LL" value="1" reducedCost="0"/>
  <variable index="637" status="LL" value="1" reducedCost="0"/>
  <variable index="638" status="LL" value="1" reducedCost="0"/>
  <variable index="639" status="LL" value="1" reducedCost="0"/>
  <variable index="640" status="LL" value="1" reducedCost="0"/>
  <variable index="641" status="LL" value="1" reducedCost="0"/>
  <variable index="642" status="LL" value="1" reducedCost="0"/>
  <variable index="643" status="LL" value="1" reducedCost="0"/>
  <variable index="644" status="LL" value="1" reducedCost="0"/>
  <variable index="645" status="LL" value="1" reducedCost="0"/>
  <variable index="646" status="LL" value="1" reducedCost="0"/>
  <variable index="647" status="LL" value="1" reducedCost="0"/>
  <variable index="648" status="LL" value="1" reducedCost="2.2204460492503131e-16"/>
  <variable index="649" status="LL" value="1" reducedCost="0"/>
  <variable index="650" status="LL" value="1" reducedCost="0"/>
  <variable index="651" status="LL" value="1" reducedCost="0"/>
  <variable index="652" status="LL" value="1" reducedCost="-2.2204460492503131e-16"/>
  <variable index="653" status="LL" value="1" reducedCost="0"/>
  <variable index="654" status="LL" value="1" reducedCost="0"/>
  <variable index="655" status="LL" value="1" reducedCost="0"/>
  <variable index="656" status="LL" value="1" reducedCost="0"/>
  <variable index="657" status="LL" value="1" reducedCost="0"/>
  <variable index="658" status="LL" value="1" reducedCost="0"/>
  <variable index="659" status="LL" value="1" reducedCost="0"/>
  <variable index="660" status="LL" value="1" reducedCost="0"/>
  <variable index="661" status="LL" value="1" reducedCost="0"/>
  <variable index="662" status="LL" value="1" reducedCost="0"/>
  <variable index="663" status="LL" value="1" reducedCost="0"/>
 </variables>
 <objectiveValues>
  <objective index="0" name="" value="168"/>
 </objectiveValues>
</CPLEXSolution>
